
Welcome to IBM(R) ILOG(R) CPLEX(R) Interactive Optimizer 22.1.1.0
  with Simplex, Mixed Integer & Barrier Optimizers
5725-A06 5725-A29 5724-Y48 5724-Y49 5724-Y54 5724-Y55 5655-Y21
Copyright IBM Corp. 1988, 2022.  All Rights Reserved.

Type 'help' for a list of available commands.
Type 'help' followed by a command name for more
information on commands.

CPLEX> Selected objective sense:  MINIMIZE
Selected objective  name:  00000000
Selected RHS        name:  RHS1
Selected bound      name:  BOUND
Problem 'ee.mps' read.
Read time = 0.02 sec. (3.17 ticks)
CPLEX> New value for time limit in seconds: 7200
CPLEX> New value for parallel optimization mode: -1
CPLEX> New value for default parallel thread count: 40
CPLEX> New value for mixed integer optimality gap tolerance: 1e-13
CPLEX> Version identifier: 22.1.1.0 | 2022-11-28 | 9160aff4d
CPXPARAM_Threads                                 40
CPXPARAM_Parallel                                -1
CPXPARAM_TimeLimit                               7200
CPXPARAM_MIP_Tolerances_MIPGap                   1e-13
Found incumbent of value 0.000000 after 0.00 sec. (0.31 ticks)
Tried aggregator 2 times.
MIP Presolve eliminated 183 rows and 2745 columns.
MIP Presolve modified 6090 coefficients.
Aggregator did 713 substitutions.
Reduced MIP has 3636 rows, 7840 columns, and 28954 nonzeros.
Reduced MIP has 7840 binaries, 0 generals, 0 SOSs, and 0 indicators.
Presolve time = 0.07 sec. (69.13 ticks)
Probing time = 0.03 sec. (5.34 ticks)
Tried aggregator 1 time.
Detecting symmetries...
Reduced MIP has 3636 rows, 7840 columns, and 28954 nonzeros.
Reduced MIP has 7840 binaries, 0 generals, 0 SOSs, and 0 indicators.
Presolve time = 0.02 sec. (22.10 ticks)
Probing time = 0.02 sec. (5.12 ticks)
Clique table members: 18788.
MIP emphasis: balance optimality and feasibility.
MIP search method: dynamic search.
Parallel mode: opportunistic, using up to 40 threads.
Root relaxation solution time = 0.12 sec. (105.09 ticks)

        Nodes                                         Cuts/
   Node  Left     Objective  IInf  Best Integer    Best Bound    ItCnt     Gap

*     0+    0                            0.0000  -1.54000e+13              --- 
*     0+    0                      -4.59000e+12  -1.54000e+13           235.51%
*     0+    0                      -5.79000e+12  -1.54000e+13           165.98%
*     0+    0                      -6.00000e+12  -1.54000e+13           156.67%
      0     0  -1.53900e+13   102  -6.00000e+12  -1.53900e+13     2111  156.50%
*     0+    0                      -1.53900e+13  -1.53900e+13             0.00%
      0     0  -1.53900e+13   203  -1.53900e+13      Cuts: 62     2572    0.00%
*     0+    0                      -1.53900e+13  -1.53900e+13             0.00%
      0     0  -1.53900e+13   262  -1.53900e+13     Cuts: 122     2741    0.00%
*     0+    0                      -1.53900e+13  -1.53900e+13             0.00%
*     0+    0                      -1.53900e+13  -1.53900e+13             0.00%
*     0+    0                      -1.53900e+13  -1.53900e+13             0.00%
      0     2  -1.53900e+13   244  -1.53900e+13  -1.53900e+13     2741    0.00%
Elapsed time = 2.38 sec. (1428.15 ticks, tree = 0.02 MB, solutions = 9)
    119    76  -1.53900e+13   326  -1.53900e+13  -1.53900e+13    26553    0.00%
    319    85  -1.53900e+13   312  -1.53900e+13  -1.53900e+13    35797    0.00%
    638   210        cutoff        -1.53900e+13  -1.53900e+13    97824    0.00%
    887   221        cutoff        -1.53900e+13  -1.53900e+13   112236    0.00%
   1182   297        cutoff        -1.53900e+13  -1.53900e+13   213192    0.00%
   1535   300        cutoff        -1.53900e+13  -1.53900e+13   224091    0.00%
   1937   393        cutoff        -1.53900e+13  -1.53900e+13   347031    0.00%
   2441   334  -1.53900e+13   211  -1.53900e+13  -1.53900e+13   253790    0.00%
   2943   341        cutoff        -1.53900e+13  -1.53900e+13   280599    0.00%
   4997   612    infeasible        -1.53900e+13  -1.53900e+13   466538    0.00%
Elapsed time = 8.22 sec. (4537.70 ticks, tree = 10.32 MB, solutions = 9)
   7045   677  -1.53900e+13   118  -1.53900e+13  -1.53900e+13   683143    0.00%
   8831   708  -1.53900e+13   133  -1.53900e+13  -1.53900e+13   656213    0.00%
  10148   828  -1.53900e+13   125  -1.53900e+13  -1.53900e+13  1224091    0.00%
  11301   675    infeasible        -1.53900e+13  -1.53900e+13   857289    0.00%
  12160   745        cutoff        -1.53900e+13  -1.53900e+13  1007640    0.00%
  12772   805  -1.53900e+13   110  -1.53900e+13  -1.53900e+13  1123196    0.00%

Performing restart 1

Repeating presolve.
Tried aggregator 2 times.
MIP Presolve eliminated 29 rows and 19 columns.
MIP Presolve modified 1865 coefficients.
Aggregator did 3 substitutions.
Reduced MIP has 3528 rows, 7818 columns, and 28286 nonzeros.
Reduced MIP has 7818 binaries, 0 generals, 0 SOSs, and 0 indicators.
Presolve time = 0.05 sec. (39.89 ticks)
Tried aggregator 2 times.
MIP Presolve eliminated 11 rows and 40 columns.
MIP Presolve modified 28 coefficients.
Aggregator did 16 substitutions.
Reduced MIP has 3501 rows, 7756 columns, and 28060 nonzeros.
Reduced MIP has 7756 binaries, 0 generals, 0 SOSs, and 0 indicators.
Presolve time = 0.06 sec. (54.31 ticks)
Represolve time = 0.22 sec. (147.80 ticks)
* 13094+    0                      -1.53900e+13  -1.53900e+13             0.00%
  13094     0  -1.53900e+13   317  -1.53900e+13      Cuts: 54  1577415    0.00%
  13094     0  -1.53900e+13   391  -1.53900e+13      Cuts: 42  1578396    0.00%
  13094     0  -1.53900e+13   438  -1.53900e+13      Cuts: 52  1578719    0.00%
  13094     0  -1.53900e+13   371  -1.53900e+13      Cuts: 51  1578934    0.00%
  13094     0  -1.53900e+13   459  -1.53900e+13      Cuts: 54  1579150    0.00%
  13094     0  -1.53900e+13   481  -1.53900e+13      Cuts: 34  1579390    0.00%
  13094    11        cutoff        -1.53900e+13  -1.53900e+13  1604135    0.00%
  13361     8  -1.53900e+13   151  -1.53900e+13  -1.53900e+13  1604910    0.00%
  13420    23  -1.53900e+13   309  -1.53900e+13  -1.53900e+13  1614495    0.00%

GUB cover cuts applied:  3
Clique cuts applied:  13
Cover cuts applied:  332
Mixed integer rounding cuts applied:  27
Zero-half cuts applied:  40
Lift and project cuts applied:  8
Gomory fractional cuts applied:  18

Root node processing (before b&c):
  Real time             =    1.51 sec. (1415.04 ticks)
Parallel b&c, 40 threads:
  Real time             =   22.87 sec. (16107.19 ticks)
  Sync time (average)   =    3.45 sec.
  Wait time (average)   =    0.12 sec.
                          ------------
Total (root+branch&cut) =   24.38 sec. (17522.23 ticks)

Solution pool: 10 solutions saved.

MIP - Integer optimal solution:  Objective = -1.5389998388e+13
Solution time =   24.49 sec.  Iterations = 1622507  Nodes = 13426
Deterministic time = 17522.26 ticks  (715.60 ticks/sec)

CPLEX> Solution 'p11' written to file 'ee.sol'.
CPLEX> 